h -1 -2 0
h 3 4 0
h -5 -6 0
h 8 9 0
h -10 11 0
h -12 13 0
276043445 14 0
210635294 -6 10 0
h 15 0
h -4 2 0
444305296 -16 0
h 17 -18 -19 0
496097290 -20 9 0
498020013 -21 0
h -2 4 0
h -20 -10 0
h 6 20 22 0
h 23 21 -24 0
176114370 -17 0
h -11 24 25 0
h -25 26 0
52764389 -27 20 0
h -22 10 0
121805219 -28 0
87337149 -29 0
h 5 -3 0
203062472 22 -9 0
h 2 12 0
240203512 14 0
h -4 -3 0
h 3 29 0
h 29 -26 0
476227077 -22 20 0
h -2 28 24 0
260893694 -30 -10 0
h 12 30 0
h 31 18 0
185311189 -32 0
h -9 -31 0
282068691 27 -10 0
51192369 15 0
h 33 -23 0
h -24 28 2 0
22616553 -8 0
h -2 -33 0
h 10 -11 0
162444734 -34 0
h 19 -13 0
48232708 -20 0
h -12 1 0
h 11 -24 0
